2025-03-15 04:35:36,906 - INFO - Set parameter WLSAccessID
2025-03-15 04:35:36,907 - INFO - Set parameter WLSSecret
2025-03-15 04:35:36,907 - INFO - Set parameter LicenseID to value 2628134
2025-03-15 04:35:37,133 - INFO - Academic license 2628134 - for non-commercial use only - registered to bs___@uw.edu
2025-03-15 04:35:37,134 - INFO - Initialization complete
2025-03-15 04:35:37,386 - INFO - Variables created successfully
2025-03-15 04:35:38,770 - INFO - Constraints added successfully
2025-03-15 04:35:38,772 - INFO - Objective function with soft constraints set successfully
2025-03-15 04:35:38,847 - INFO - ================================================================================
2025-03-15 04:35:38,847 - INFO - SYSTEM CONFIGURATION
2025-03-15 04:35:38,847 - INFO - System has 373.7 GB of RAM available
2025-03-15 04:35:38,847 - INFO - Setting Gurobi memory limit to 355 GB (95% of available RAM)
2025-03-15 04:35:38,847 - INFO - Set parameter MemLimit to value 363520
2025-03-15 04:35:38,847 - INFO - Set parameter Presolve to value 1
2025-03-15 04:35:38,847 - INFO - Set parameter Method to value 1
2025-03-15 04:35:38,847 - INFO - Set parameter MIPFocus to value 1
2025-03-15 04:35:38,847 - INFO - Set parameter MIPGap to value 0.1
2025-03-15 04:35:38,847 - INFO - Set parameter TimeLimit to value 25200
2025-03-15 04:35:38,847 - INFO - Set parameter NodefileStart to value 0.95
2025-03-15 04:35:38,847 - INFO - Set parameter NodefileDir to value "/tmp/gurobi_nodefiles"
2025-03-15 04:35:38,847 - INFO - Node file directory: /tmp/gurobi_nodefiles
2025-03-15 04:35:38,847 - INFO - Will switch to disk storage when memory reaches 95.0% of allocated RAM
2025-03-15 04:35:38,847 - INFO - Set parameter OutputFlag to value 1
2025-03-15 04:35:38,847 - INFO - Set parameter DisplayInterval to value 5
2025-03-15 04:35:38,855 - INFO - Set parameter Threads to value 32
2025-03-15 04:35:38,855 - INFO - Using 32 threads out of 48 available cores
2025-03-15 04:35:38,855 - INFO - Generating initial solution using advanced greedy algorithm...
2025-03-15 04:35:38,971 - INFO - Greedy algorithm generated initial values for: 956 x vars, 52 z vars, 956 y vars
2025-03-15 04:35:38,976 - INFO - Initial solution: 956/200 students assigned, 52/52 sections used
2025-03-15 04:35:38,976 - INFO - Set parameter MIPFocus to value 1
2025-03-15 04:35:38,976 - INFO - ================================================================================
2025-03-15 04:35:38,976 - INFO - STARTING OPTIMIZATION
2025-03-15 04:35:38,976 - INFO - Maximum possible satisfied requests: 1200
2025-03-15 04:35:38,976 - INFO - ================================================================================
2025-03-15 04:35:39,004 - INFO - Gurobi Optimizer version 12.0.1 build v12.0.1rc0 (linux64 - "Debian GNU/Linux 12 (bookworm)")
2025-03-15 04:35:39,004 - INFO - 
2025-03-15 04:35:39,004 - INFO - CPU model: Intel(R) Xeon(R) Platinum 8259CL CPU @ 2.50GHz, instruction set [SSE2|AVX|AVX2|AVX512]
2025-03-15 04:35:39,004 - INFO - Thread count: 24 physical cores, 48 logical processors, using up to 32 threads
2025-03-15 04:35:39,004 - INFO - 
2025-03-15 04:35:39,004 - INFO - Non-default parameters:
2025-03-15 04:35:39,004 - INFO - TimeLimit  25200
2025-03-15 04:35:39,004 - INFO - MemLimit  363520
2025-03-15 04:35:39,004 - INFO - MIPGap  0.1
2025-03-15 04:35:39,004 - INFO - Method  1
2025-03-15 04:35:39,004 - INFO - MIPFocus  1
2025-03-15 04:35:39,005 - INFO - NodefileStart  0.95
2025-03-15 04:35:39,005 - INFO - Presolve  1
2025-03-15 04:35:39,005 - INFO - Threads  32
2025-03-15 04:35:39,005 - INFO - 
2025-03-15 04:35:39,006 - INFO - Academic license 2628134 - for non-commercial use only - registered to bs___@uw.edu
2025-03-15 04:35:39,006 - INFO - Optimize a model with 92536 rows, 35205 columns and 247934 nonzeros
2025-03-15 04:35:39,010 - INFO - Model fingerprint: 0x95bfaaa3
2025-03-15 04:35:39,010 - INFO - Variable types: 0 continuous, 35205 integer (35153 binary)
2025-03-15 04:35:39,010 - INFO - Coefficient statistics:
2025-03-15 04:35:39,010 - INFO -   Matrix range     [1e+00, 1e+00]
2025-03-15 04:35:39,011 - INFO -   Objective range  [1e+00, 1e+03]
2025-03-15 04:35:39,011 - INFO -   Bounds range     [1e+00, 1e+00]
2025-03-15 04:35:39,011 - INFO -   RHS range        [1e+00, 4e+01]
2025-03-15 04:35:39,011 - INFO - 
2025-03-15 04:35:39,011 - INFO - Warning: Completing partial solution with 33241 unfixed non-continuous variables out of 35205
2025-03-15 04:35:39,072 - INFO - User MIP start produced solution with objective 79015 (0.07s)
2025-03-15 04:35:39,076 - INFO - Loaded user MIP start with objective 79015
2025-03-15 04:35:39,077 - INFO - 
2025-03-15 04:35:39,815 - INFO - Presolve removed 106 rows and 1208 columns
2025-03-15 04:35:39,815 - INFO - Presolve time: 0.74s
2025-03-15 04:35:39,815 - INFO - Presolved: 92430 rows, 33997 columns, 246696 nonzeros
2025-03-15 04:35:39,876 - INFO - Variable types: 0 continuous, 33997 integer (33947 binary)
2025-03-15 04:35:42,674 - INFO - 
2025-03-15 04:35:42,675 - INFO - Root relaxation: objective 2.328306e-10, 9672 iterations, 2.79 seconds (2.90 work units)
2025-03-15 04:35:44,916 - INFO - Total elapsed time = 5.91s (DegenMoves)
2025-03-15 04:35:50,611 - INFO - 
2025-03-15 04:35:50,611 - INFO -     Nodes    |    Current Node    |     Objective Bounds      |     Work
2025-03-15 04:35:50,611 - INFO -  Expl Unexpl |  Obj  Depth IntInf | Incumbent    BestBd   Gap | It/Node Time
2025-03-15 04:35:50,611 - INFO - 
2025-03-15 04:35:50,611 - INFO -      0     0    0.00000    0  537 79015.0000    0.00000   100%     -   11s
2025-03-15 04:36:13,398 - INFO - H    0     0                    78015.000000    0.00000   100%     -   34s
2025-03-15 04:36:13,402 - INFO - H    0     0                    76015.000000    0.00000   100%     -   34s
2025-03-15 04:36:13,407 - INFO - H    0     0                    61004.000000    0.00000   100%     -   34s
2025-03-15 04:36:13,411 - INFO - H    0     0                    59004.000000    0.00000   100%     -   34s
2025-03-15 04:36:13,415 - INFO - H    0     0                    58004.000000    0.00000   100%     -   34s
2025-03-15 04:36:13,419 - INFO - H    0     0                    57004.000000    0.00000   100%     -   34s
2025-03-15 04:36:13,423 - INFO - H    0     0                    56004.000000    0.00000   100%     -   34s
2025-03-15 04:36:13,427 - INFO - H    0     0                    48008.000000    0.00000   100%     -   34s
2025-03-15 04:36:13,431 - INFO - H    0     0                    47008.000000    0.00000   100%     -   34s
2025-03-15 04:36:13,435 - INFO - H    0     0                    46009.000000    0.00000   100%     -   34s
2025-03-15 04:36:21,569 - INFO -      0     0    0.00000    0 3400 46009.0000    0.00000   100%     -   42s
2025-03-15 04:36:23,946 - INFO - H    0     0                    14003.000000    0.00000   100%     -   44s
2025-03-15 04:36:23,950 - INFO - H    0     0                    12005.000000    0.00000   100%     -   44s
2025-03-15 04:36:23,954 - INFO - H    0     0                    11005.000000    0.00000   100%     -   44s
2025-03-15 04:36:24,086 - INFO -      0     0    0.00000    0 3367 11005.0000    0.00000   100%     -   45s
2025-03-15 04:36:29,728 - INFO - H    0     0                    2018.0000000    0.00000   100%     -   50s
2025-03-15 04:36:29,732 - INFO - H    0     0                    1019.0000000    0.00000   100%     -   50s
2025-03-15 04:36:29,736 - INFO - H    0     0                    1009.0000000    0.00000   100%     -   50s
2025-03-15 04:37:24,328 - INFO - H    0     0                    1008.0000000    0.00000   100%     -  105s
2025-03-15 04:37:24,332 - INFO - H    0     0                    1006.0000000    0.00000   100%     -  105s
2025-03-15 04:37:24,335 - INFO - H    0     0                    1005.0000000    0.00000   100%     -  105s
2025-03-15 04:37:24,339 - INFO - H    0     0                       0.0000000    0.00000  0.00%     -  105s
2025-03-15 04:37:24,343 - INFO -      0     0    0.00000    0  552    0.00000    0.00000  0.00%     -  105s
2025-03-15 04:37:24,353 - INFO - 
2025-03-15 04:37:24,353 - INFO - Cutting planes:
2025-03-15 04:37:24,353 - INFO -   Implied bound: 230
2025-03-15 04:37:24,353 - INFO -   MIR: 8
2025-03-15 04:37:24,353 - INFO -   Zero half: 2
2025-03-15 04:37:24,353 - INFO -   RLT: 1253
2025-03-15 04:37:24,353 - INFO -   BQP: 120
2025-03-15 04:37:24,356 - INFO - 
2025-03-15 04:37:24,356 - INFO - Explored 1 nodes (130344 simplex iterations) in 105.35 seconds (103.94 work units)
2025-03-15 04:37:24,356 - INFO - Thread count was 32 (of 48 available processors)
2025-03-15 04:37:24,356 - INFO - 
2025-03-15 04:37:24,356 - INFO - Solution count 10: 0 1005 1006 ... 14003
2025-03-15 04:37:24,356 - INFO - 
2025-03-15 04:37:24,356 - INFO - Optimal solution found (tolerance 1.00e-01)
2025-03-15 04:37:24,357 - INFO - Best objective 0.000000000000e+00, best bound 0.000000000000e+00, gap 0.0000%
2025-03-15 04:37:24,381 - INFO - 
2025-03-15 04:37:24,381 - INFO - User-callback calls 11313, time in user-callback 0.05 sec
2025-03-15 04:37:24,381 - INFO - ================================================================================
2025-03-15 04:37:24,381 - INFO - OPTIMIZATION RESULTS
2025-03-15 04:37:24,383 - INFO - STATUS: Found optimal solution!
2025-03-15 04:37:24,383 - INFO - SATISFIED REQUESTS: 1200 out of 1200
2025-03-15 04:37:24,383 - INFO - SATISFACTION RATE: 100.00%
2025-03-15 04:37:24,384 - INFO - CAPACITY VIOLATIONS: 0 sections over capacity
2025-03-15 04:37:24,384 - INFO - TOTAL OVERAGES: 0 students over capacity
2025-03-15 04:37:24,384 - INFO - OBJECTIVE VALUE: 0.0
2025-03-15 04:37:24,384 - INFO -   - Missed requests penalty: 0
2025-03-15 04:37:24,384 - INFO -   - Capacity violations penalty: 0.0
2025-03-15 04:37:24,384 - INFO - RUNTIME: 105.38 seconds
2025-03-15 04:37:24,384 - INFO - NODES EXPLORED: 1.0
2025-03-15 04:37:24,384 - INFO - MIP GAP: 0.00%
2025-03-15 04:37:24,384 - INFO - PEAK MEMORY USAGE: Not available
2025-03-15 04:37:24,384 - INFO - ================================================================================
2025-03-15 04:37:24,384 - INFO - Saving solution files...
2025-03-15 04:37:24,415 - INFO - Solution saved successfully
2025-03-15 04:37:24,416 - INFO - Warning: environment still referenced so free is deferred (Continue to use WLS)
